p cnf 12 50 
-2 -3 -9 0
-8 -2 -3 0
6 -7 1 0
-2 7 8 0
4 -5 -6 0
-7 -9 11 0
-1 -9 -3 0
5 -9 7 0
-6 1 -5 0
9 -3 -2 0
3 -8 7 0
11 -4 8 0
1 -6 5 0
3 2 -7 0
2 6 7 0
-2 -11 4 0
6 -3 -1 0
6 -12 -1 0
-7 -9 12 0
10 -1 -12 0
-5 6 3 0
-7 2 -11 0
-11 -5 8 0
11 10 -5 0
-10 9 3 0
-6 -10 4 0
-9 -7 1 0
4 7 -11 0
3 -9 4 0
-1 7 5 0
9 -2 -3 0
-1 -10 -9 0
-12 -2 6 0
-5 -8 -9 0
-9 -7 12 0
-6 5 -12 0
3 -4 8 0
1 2 8 0
6 7 -2 0
-7 -12 4 0
6 11 2 0
-4 -3 -9 0
8 -9 -5 0
-10 8 2 0
12 -10 -11 0
3 8 10 0
-6 7 -11 0
-3 7 -1 0
7 -3 -1 0
12 -9 6 0
